; Benchmark for LTL-sketching problem
(set-logic QF_UF)
(set-info :status unknown)
(declare-fun z_1_0_0 () Bool)
(declare-fun z_0_0_0 () Bool)
(declare-fun z_1_1_0 () Bool)
(declare-fun z_0_1_0 () Bool)
(declare-fun z_1_2_0 () Bool)
(declare-fun z_0_2_0 () Bool)
(declare-fun z_1_3_0 () Bool)
(declare-fun z_0_3_0 () Bool)
(declare-fun z_1_4_0 () Bool)
(declare-fun z_0_4_0 () Bool)
(declare-fun z_1_5_0 () Bool)
(declare-fun z_0_5_0 () Bool)
(declare-fun z_1_6_0 () Bool)
(declare-fun z_0_6_0 () Bool)
(declare-fun z_1_7_0 () Bool)
(declare-fun z_0_7_0 () Bool)
(declare-fun z_1_8_0 () Bool)
(declare-fun z_0_8_0 () Bool)
(declare-fun z_1_9_0 () Bool)
(declare-fun z_0_9_0 () Bool)
(declare-fun z_0_10_1 () Bool)
(declare-fun z_1_10_0 () Bool)
(declare-fun z_0_10_0 () Bool)
(declare-fun z_0_10_2 () Bool)
(declare-fun z_1_10_1 () Bool)
(declare-fun z_1_10_2 () Bool)
(declare-fun z_0_11_1 () Bool)
(declare-fun z_1_11_0 () Bool)
(declare-fun z_0_11_0 () Bool)
(declare-fun z_0_11_2 () Bool)
(declare-fun z_1_11_1 () Bool)
(declare-fun z_1_11_2 () Bool)
(declare-fun z_0_12_1 () Bool)
(declare-fun z_1_12_0 () Bool)
(declare-fun z_0_12_0 () Bool)
(declare-fun z_0_12_2 () Bool)
(declare-fun z_1_12_1 () Bool)
(declare-fun z_0_12_3 () Bool)
(declare-fun z_1_12_2 () Bool)
(declare-fun z_1_12_3 () Bool)
(declare-fun z_0_13_1 () Bool)
(declare-fun z_1_13_0 () Bool)
(declare-fun z_0_13_0 () Bool)
(declare-fun z_0_13_2 () Bool)
(declare-fun z_1_13_1 () Bool)
(declare-fun z_0_13_3 () Bool)
(declare-fun z_1_13_2 () Bool)
(declare-fun z_1_13_3 () Bool)
(declare-fun z_0_14_1 () Bool)
(declare-fun z_1_14_0 () Bool)
(declare-fun z_0_14_0 () Bool)
(declare-fun z_0_14_2 () Bool)
(declare-fun z_1_14_1 () Bool)
(declare-fun z_0_14_3 () Bool)
(declare-fun z_1_14_2 () Bool)
(declare-fun z_0_14_4 () Bool)
(declare-fun z_1_14_3 () Bool)
(declare-fun z_0_14_5 () Bool)
(declare-fun z_1_14_4 () Bool)
(declare-fun z_0_14_6 () Bool)
(declare-fun z_1_14_5 () Bool)
(declare-fun z_0_14_7 () Bool)
(declare-fun z_1_14_6 () Bool)
(declare-fun z_1_14_7 () Bool)
(declare-fun z_0_15_1 () Bool)
(declare-fun z_1_15_0 () Bool)
(declare-fun z_0_15_0 () Bool)
(declare-fun z_0_15_2 () Bool)
(declare-fun z_1_15_1 () Bool)
(declare-fun z_0_15_3 () Bool)
(declare-fun z_1_15_2 () Bool)
(declare-fun z_0_15_4 () Bool)
(declare-fun z_1_15_3 () Bool)
(declare-fun z_0_15_5 () Bool)
(declare-fun z_1_15_4 () Bool)
(declare-fun z_1_15_5 () Bool)
(declare-fun z_0_16_1 () Bool)
(declare-fun z_1_16_0 () Bool)
(declare-fun z_0_16_0 () Bool)
(declare-fun z_0_16_2 () Bool)
(declare-fun z_1_16_1 () Bool)
(declare-fun z_0_16_3 () Bool)
(declare-fun z_1_16_2 () Bool)
(declare-fun z_0_16_4 () Bool)
(declare-fun z_1_16_3 () Bool)
(declare-fun z_0_16_5 () Bool)
(declare-fun z_1_16_4 () Bool)
(declare-fun z_0_16_6 () Bool)
(declare-fun z_1_16_5 () Bool)
(declare-fun z_1_16_6 () Bool)
(declare-fun z_0_17_1 () Bool)
(declare-fun z_1_17_0 () Bool)
(declare-fun z_0_17_0 () Bool)
(declare-fun z_1_17_1 () Bool)
(declare-fun z_0_18_1 () Bool)
(declare-fun z_1_18_0 () Bool)
(declare-fun z_0_18_0 () Bool)
(declare-fun z_0_18_2 () Bool)
(declare-fun z_1_18_1 () Bool)
(declare-fun z_0_18_3 () Bool)
(declare-fun z_1_18_2 () Bool)
(declare-fun z_0_18_4 () Bool)
(declare-fun z_1_18_3 () Bool)
(declare-fun z_0_18_5 () Bool)
(declare-fun z_1_18_4 () Bool)
(declare-fun z_0_18_6 () Bool)
(declare-fun z_1_18_5 () Bool)
(declare-fun z_1_18_6 () Bool)
(declare-fun z_0_19_1 () Bool)
(declare-fun z_1_19_0 () Bool)
(declare-fun z_0_19_0 () Bool)
(declare-fun z_0_19_2 () Bool)
(declare-fun z_1_19_1 () Bool)
(declare-fun z_0_19_3 () Bool)
(declare-fun z_1_19_2 () Bool)
(declare-fun z_1_19_3 () Bool)
(assert
 (= z_0_0_0 (and z_1_0_0)))
(assert
 (= z_0_1_0 (and z_1_1_0)))
(assert
 (= z_0_2_0 (and z_1_2_0)))
(assert
 (= z_0_3_0 (and z_1_3_0)))
(assert
 (= z_0_4_0 (and z_1_4_0)))
(assert
 (= z_0_5_0 (and z_1_5_0)))
(assert
 (= z_0_6_0 (and z_1_6_0)))
(assert
 (= z_0_7_0 (and z_1_7_0)))
(assert
 (= z_0_8_0 (and z_1_8_0)))
(assert
 (= z_0_9_0 (and z_1_9_0)))
(assert
 (= z_0_10_0 (and z_1_10_0 z_0_10_1)))
(assert
 (= z_0_10_1 (and z_1_10_1 z_0_10_2)))
(assert
 (= z_0_10_2 (and z_1_10_2)))
(assert
 (= z_0_11_0 (and z_1_11_0 z_0_11_1)))
(assert
 (= z_0_11_1 (and z_1_11_1 z_0_11_2)))
(assert
 (= z_0_11_2 (and z_1_11_0 z_1_11_1 z_1_11_2)))
(assert
 (= z_0_12_0 (and z_1_12_0 z_0_12_1)))
(assert
 (= z_0_12_1 (and z_1_12_1 z_0_12_2)))
(assert
 (= z_0_12_2 (and z_1_12_2 z_0_12_3)))
(assert
 (= z_0_12_3 (and z_1_12_1 z_1_12_2 z_1_12_3)))
(assert
 (= z_0_13_0 (and z_1_13_0 z_0_13_1)))
(assert
 (= z_0_13_1 (and z_1_13_1 z_0_13_2)))
(assert
 (= z_0_13_2 (and z_1_13_2 z_0_13_3)))
(assert
 (= z_0_13_3 (and z_1_13_2 z_1_13_3)))
(assert
 (= z_0_14_0 (and z_1_14_0 z_0_14_1)))
(assert
 (= z_0_14_1 (and z_1_14_1 z_0_14_2)))
(assert
 (= z_0_14_2 (and z_1_14_2 z_0_14_3)))
(assert
 (= z_0_14_3 (and z_1_14_3 z_0_14_4)))
(assert
 (= z_0_14_4 (and z_1_14_4 z_0_14_5)))
(assert
 (= z_0_14_5 (and z_1_14_5 z_0_14_6)))
(assert
 (= z_0_14_6 (and z_1_14_6 z_0_14_7)))
(assert
 (= z_0_14_7 (and z_1_14_4 z_1_14_5 z_1_14_6 z_1_14_7)))
(assert
 (= z_0_15_0 (and z_1_15_0 z_0_15_1)))
(assert
 (= z_0_15_1 (and z_1_15_1 z_0_15_2)))
(assert
 (= z_0_15_2 (and z_1_15_2 z_0_15_3)))
(assert
 (= z_0_15_3 (and z_1_15_3 z_0_15_4)))
(assert
 (= z_0_15_4 (and z_1_15_4 z_0_15_5)))
(assert
 (= z_0_15_5 (and z_1_15_2 z_1_15_3 z_1_15_4 z_1_15_5)))
(assert
 (= z_0_16_0 (and z_1_16_0 z_0_16_1)))
(assert
 (= z_0_16_1 (and z_1_16_1 z_0_16_2)))
(assert
 (= z_0_16_2 (and z_1_16_2 z_0_16_3)))
(assert
 (= z_0_16_3 (and z_1_16_3 z_0_16_4)))
(assert
 (= z_0_16_4 (and z_1_16_4 z_0_16_5)))
(assert
 (= z_0_16_5 (and z_1_16_5 z_0_16_6)))
(assert
 (= z_0_16_6 (and z_1_16_3 z_1_16_4 z_1_16_5 z_1_16_6)))
(assert
 (= z_0_17_0 (and z_1_17_0 z_0_17_1)))
(assert
 (= z_0_17_1 (and z_1_17_1)))
(assert
 (= z_0_18_0 (and z_1_18_0 z_0_18_1)))
(assert
 (= z_0_18_1 (and z_1_18_1 z_0_18_2)))
(assert
 (= z_0_18_2 (and z_1_18_2 z_0_18_3)))
(assert
 (= z_0_18_3 (and z_1_18_3 z_0_18_4)))
(assert
 (= z_0_18_4 (and z_1_18_4 z_0_18_5)))
(assert
 (= z_0_18_5 (and z_1_18_5 z_0_18_6)))
(assert
 (= z_0_18_6 (and z_1_18_3 z_1_18_4 z_1_18_5 z_1_18_6)))
(assert
 (= z_0_19_0 (and z_1_19_0 z_0_19_1)))
(assert
 (= z_0_19_1 (and z_1_19_1 z_0_19_2)))
(assert
 (= z_0_19_2 (and z_1_19_2 z_0_19_3)))
(assert
 (= z_0_19_3 (and z_1_19_3)))
(assert
 (= z_0_0_0 true))
(assert
 (= z_0_1_0 true))
(assert
 (= z_0_2_0 true))
(assert
 (= z_0_3_0 true))
(assert
 (= z_0_4_0 true))
(assert
 (= z_0_5_0 true))
(assert
 (= z_0_6_0 true))
(assert
 (= z_0_7_0 true))
(assert
 (= z_0_8_0 true))
(assert
 (= z_0_9_0 true))
(assert
 (= z_0_10_0 false))
(assert
 (= z_0_11_0 false))
(assert
 (= z_0_12_0 false))
(assert
 (= z_0_13_0 false))
(assert
 (= z_0_14_0 false))
(assert
 (= z_0_15_0 false))
(assert
 (= z_0_16_0 false))
(assert
 (= z_0_17_0 false))
(assert
 (= z_0_18_0 false))
(assert
 (= z_0_19_0 false))
(assert
 (let (($x298 (= z_1_0_0 z_1_1_0)))
 (and $x298)))
(assert
 (let (($x300 (= z_1_0_0 z_1_2_0)))
 (and $x300)))
(assert
 (let (($x302 (= z_1_0_0 z_1_3_0)))
 (and $x302)))
(assert
 (let (($x304 (= z_1_0_0 z_1_4_0)))
 (and $x304)))
(assert
 (let (($x306 (= z_1_0_0 z_1_5_0)))
 (and $x306)))
(assert
 (let (($x308 (= z_1_0_0 z_1_6_0)))
 (and $x308)))
(assert
 (let (($x310 (= z_1_0_0 z_1_7_0)))
 (and $x310)))
(assert
 (let (($x312 (= z_1_0_0 z_1_8_0)))
 (and $x312)))
(assert
 (let (($x314 (= z_1_0_0 z_1_9_0)))
 (and $x314)))
(assert
 (let (($x316 (= z_1_0_0 z_1_10_2)))
 (and $x316)))
(assert
 (let (($x318 (= z_1_1_0 z_1_2_0)))
 (and $x318)))
(assert
 (let (($x320 (= z_1_1_0 z_1_3_0)))
 (and $x320)))
(assert
 (let (($x322 (= z_1_1_0 z_1_4_0)))
 (and $x322)))
(assert
 (let (($x324 (= z_1_1_0 z_1_5_0)))
 (and $x324)))
(assert
 (let (($x326 (= z_1_1_0 z_1_6_0)))
 (and $x326)))
(assert
 (let (($x328 (= z_1_1_0 z_1_7_0)))
 (and $x328)))
(assert
 (let (($x330 (= z_1_1_0 z_1_8_0)))
 (and $x330)))
(assert
 (let (($x332 (= z_1_1_0 z_1_9_0)))
 (and $x332)))
(assert
 (let (($x334 (= z_1_1_0 z_1_10_2)))
 (and $x334)))
(assert
 (let (($x336 (= z_1_2_0 z_1_3_0)))
 (and $x336)))
(assert
 (let (($x338 (= z_1_2_0 z_1_4_0)))
 (and $x338)))
(assert
 (let (($x340 (= z_1_2_0 z_1_5_0)))
 (and $x340)))
(assert
 (let (($x342 (= z_1_2_0 z_1_6_0)))
 (and $x342)))
(assert
 (let (($x344 (= z_1_2_0 z_1_7_0)))
 (and $x344)))
(assert
 (let (($x346 (= z_1_2_0 z_1_8_0)))
 (and $x346)))
(assert
 (let (($x348 (= z_1_2_0 z_1_9_0)))
 (and $x348)))
(assert
 (let (($x350 (= z_1_2_0 z_1_10_2)))
 (and $x350)))
(assert
 (let (($x352 (= z_1_3_0 z_1_4_0)))
 (and $x352)))
(assert
 (let (($x354 (= z_1_3_0 z_1_5_0)))
 (and $x354)))
(assert
 (let (($x356 (= z_1_3_0 z_1_6_0)))
 (and $x356)))
(assert
 (let (($x358 (= z_1_3_0 z_1_7_0)))
 (and $x358)))
(assert
 (let (($x360 (= z_1_3_0 z_1_8_0)))
 (and $x360)))
(assert
 (let (($x362 (= z_1_3_0 z_1_9_0)))
 (and $x362)))
(assert
 (let (($x364 (= z_1_3_0 z_1_10_2)))
 (and $x364)))
(assert
 (let (($x366 (= z_1_4_0 z_1_5_0)))
 (and $x366)))
(assert
 (let (($x368 (= z_1_4_0 z_1_6_0)))
 (and $x368)))
(assert
 (let (($x370 (= z_1_4_0 z_1_7_0)))
 (and $x370)))
(assert
 (let (($x372 (= z_1_4_0 z_1_8_0)))
 (and $x372)))
(assert
 (let (($x374 (= z_1_4_0 z_1_9_0)))
 (and $x374)))
(assert
 (let (($x376 (= z_1_4_0 z_1_10_2)))
 (and $x376)))
(assert
 (let (($x378 (= z_1_5_0 z_1_6_0)))
 (and $x378)))
(assert
 (let (($x380 (= z_1_5_0 z_1_7_0)))
 (and $x380)))
(assert
 (let (($x382 (= z_1_5_0 z_1_8_0)))
 (and $x382)))
(assert
 (let (($x384 (= z_1_5_0 z_1_9_0)))
 (and $x384)))
(assert
 (let (($x386 (= z_1_5_0 z_1_10_2)))
 (and $x386)))
(assert
 (let (($x388 (= z_1_6_0 z_1_7_0)))
 (and $x388)))
(assert
 (let (($x390 (= z_1_6_0 z_1_8_0)))
 (and $x390)))
(assert
 (let (($x392 (= z_1_6_0 z_1_9_0)))
 (and $x392)))
(assert
 (let (($x394 (= z_1_6_0 z_1_10_2)))
 (and $x394)))
(assert
 (let (($x396 (= z_1_7_0 z_1_8_0)))
 (and $x396)))
(assert
 (let (($x398 (= z_1_7_0 z_1_9_0)))
 (and $x398)))
(assert
 (let (($x400 (= z_1_7_0 z_1_10_2)))
 (and $x400)))
(assert
 (let (($x402 (= z_1_8_0 z_1_9_0)))
 (and $x402)))
(assert
 (let (($x404 (= z_1_8_0 z_1_10_2)))
 (and $x404)))
(assert
 (let (($x406 (= z_1_9_0 z_1_10_2)))
 (and $x406)))
(assert
 (let (($x408 (= z_1_11_0 z_1_12_2)))
 (and $x408)))
(assert
 (let (($x410 (= z_1_11_1 z_1_12_3)))
 (and $x410)))
(assert
 (let (($x412 (= z_1_11_2 z_1_12_1)))
 (and $x412)))
(assert
 (let (($x414 (= z_1_14_4 z_1_15_5)))
 (and $x414)))
(assert
 (let (($x416 (= z_1_14_5 z_1_15_2)))
 (and $x416)))
(assert
 (let (($x418 (= z_1_14_6 z_1_15_3)))
 (and $x418)))
(assert
 (let (($x420 (= z_1_14_7 z_1_15_4)))
 (and $x420)))
(assert
 (let (($x422 (= z_1_14_4 z_1_18_6)))
 (and $x422)))
(assert
 (let (($x424 (= z_1_14_5 z_1_18_3)))
 (and $x424)))
(assert
 (let (($x426 (= z_1_14_6 z_1_18_4)))
 (and $x426)))
(assert
 (let (($x428 (= z_1_14_7 z_1_18_5)))
 (and $x428)))
(assert
 (let (($x430 (= z_1_15_0 z_1_18_1)))
 (and $x430)))
(assert
 (let (($x432 (= z_1_15_1 z_1_18_2)))
 (and $x432)))
(assert
 (let (($x434 (= z_1_15_2 z_1_18_3)))
 (and $x434)))
(assert
 (let (($x436 (= z_1_15_3 z_1_18_4)))
 (and $x436)))
(assert
 (let (($x438 (= z_1_15_4 z_1_18_5)))
 (and $x438)))
(assert
 (let (($x440 (= z_1_15_5 z_1_18_6)))
 (and $x440)))
(assert
 (let (($x442 (= z_1_17_0 z_1_19_2)))
 (and $x442)))
(assert
 (let (($x444 (= z_1_17_1 z_1_19_3)))
 (and $x444)))
(check-sat)

